c File: flat50_3_0.col
c
c SOURCE: Joseph Culberson (joe@cs.ualberta.ca)
c DESCRIPTION: Quasi-random coloring problem
c              generated with flatness = 0
c                             probability = 0.139
c                             known coloring = 3
c                             random seed = 1472
c              Creation Date:  Tue Jun  9 12:10:10 1998
c Maximum degree = 8 Minimum degree = 1
c p edge 50 115
c cnf created by edge2cnf
p cnf 150 545
-1 -2 0
-1 -3 0
-2 -3 0
1 2 3 0
-4 -5 0
-4 -6 0
-5 -6 0
4 5 6 0
-7 -8 0
-7 -9 0
-8 -9 0
7 8 9 0
-10 -11 0
-10 -12 0
-11 -12 0
10 11 12 0
-13 -14 0
-13 -15 0
-14 -15 0
13 14 15 0
-16 -17 0
-16 -18 0
-17 -18 0
16 17 18 0
-19 -20 0
-19 -21 0
-20 -21 0
19 20 21 0
-22 -23 0
-22 -24 0
-23 -24 0
22 23 24 0
-25 -26 0
-25 -27 0
-26 -27 0
25 26 27 0
-28 -29 0
-28 -30 0
-29 -30 0
28 29 30 0
-31 -32 0
-31 -33 0
-32 -33 0
31 32 33 0
-34 -35 0
-34 -36 0
-35 -36 0
34 35 36 0
-37 -38 0
-37 -39 0
-38 -39 0
37 38 39 0
-40 -41 0
-40 -42 0
-41 -42 0
40 41 42 0
-43 -44 0
-43 -45 0
-44 -45 0
43 44 45 0
-46 -47 0
-46 -48 0
-47 -48 0
46 47 48 0
-49 -50 0
-49 -51 0
-50 -51 0
49 50 51 0
-52 -53 0
-52 -54 0
-53 -54 0
52 53 54 0
-55 -56 0
-55 -57 0
-56 -57 0
55 56 57 0
-58 -59 0
-58 -60 0
-59 -60 0
58 59 60 0
-61 -62 0
-61 -63 0
-62 -63 0
61 62 63 0
-64 -65 0
-64 -66 0
-65 -66 0
64 65 66 0
-67 -68 0
-67 -69 0
-68 -69 0
67 68 69 0
-70 -71 0
-70 -72 0
-71 -72 0
70 71 72 0
-73 -74 0
-73 -75 0
-74 -75 0
73 74 75 0
-76 -77 0
-76 -78 0
-77 -78 0
76 77 78 0
-79 -80 0
-79 -81 0
-80 -81 0
79 80 81 0
-82 -83 0
-82 -84 0
-83 -84 0
82 83 84 0
-85 -86 0
-85 -87 0
-86 -87 0
85 86 87 0
-88 -89 0
-88 -90 0
-89 -90 0
88 89 90 0
-91 -92 0
-91 -93 0
-92 -93 0
91 92 93 0
-94 -95 0
-94 -96 0
-95 -96 0
94 95 96 0
-97 -98 0
-97 -99 0
-98 -99 0
97 98 99 0
-100 -101 0
-100 -102 0
-101 -102 0
100 101 102 0
-103 -104 0
-103 -105 0
-104 -105 0
103 104 105 0
-106 -107 0
-106 -108 0
-107 -108 0
106 107 108 0
-109 -110 0
-109 -111 0
-110 -111 0
109 110 111 0
-112 -113 0
-112 -114 0
-113 -114 0
112 113 114 0
-115 -116 0
-115 -117 0
-116 -117 0
115 116 117 0
-118 -119 0
-118 -120 0
-119 -120 0
118 119 120 0
-121 -122 0
-121 -123 0
-122 -123 0
121 122 123 0
-124 -125 0
-124 -126 0
-125 -126 0
124 125 126 0
-127 -128 0
-127 -129 0
-128 -129 0
127 128 129 0
-130 -131 0
-130 -132 0
-131 -132 0
130 131 132 0
-133 -134 0
-133 -135 0
-134 -135 0
133 134 135 0
-136 -137 0
-136 -138 0
-137 -138 0
136 137 138 0
-139 -140 0
-139 -141 0
-140 -141 0
139 140 141 0
-142 -143 0
-142 -144 0
-143 -144 0
142 143 144 0
-145 -146 0
-145 -147 0
-146 -147 0
145 146 147 0
-148 -149 0
-148 -150 0
-149 -150 0
148 149 150 0
-52 -1 0
-53 -2 0
-54 -3 0
-70 -1 0
-71 -2 0
-72 -3 0
-73 -1 0
-74 -2 0
-75 -3 0
-82 -1 0
-83 -2 0
-84 -3 0
-112 -1 0
-113 -2 0
-114 -3 0
-115 -1 0
-116 -2 0
-117 -3 0
-133 -1 0
-134 -2 0
-135 -3 0
-142 -1 0
-143 -2 0
-144 -3 0
-64 -4 0
-65 -5 0
-66 -6 0
-73 -4 0
-74 -5 0
-75 -6 0
-79 -4 0
-80 -5 0
-81 -6 0
-109 -4 0
-110 -5 0
-111 -6 0
-139 -4 0
-140 -5 0
-141 -6 0
-55 -7 0
-56 -8 0
-57 -9 0
-64 -7 0
-65 -8 0
-66 -9 0
-79 -7 0
-80 -8 0
-81 -9 0
-82 -7 0
-83 -8 0
-84 -9 0
-109 -7 0
-110 -8 0
-111 -9 0
-118 -7 0
-119 -8 0
-120 -9 0
-121 -7 0
-122 -8 0
-123 -9 0
-67 -10 0
-68 -11 0
-69 -12 0
-79 -10 0
-80 -11 0
-81 -12 0
-142 -13 0
-143 -14 0
-144 -15 0
-73 -16 0
-74 -17 0
-75 -18 0
-82 -16 0
-83 -17 0
-84 -18 0
-127 -16 0
-128 -17 0
-129 -18 0
-139 -16 0
-140 -17 0
-141 -18 0
-52 -19 0
-53 -20 0
-54 -21 0
-85 -19 0
-86 -20 0
-87 -21 0
-115 -19 0
-116 -20 0
-117 -21 0
-70 -22 0
-71 -23 0
-72 -24 0
-127 -22 0
-128 -23 0
-129 -24 0
-55 -25 0
-56 -26 0
-57 -27 0
-73 -25 0
-74 -26 0
-75 -27 0
-88 -25 0
-89 -26 0
-90 -27 0
-91 -25 0
-92 -26 0
-93 -27 0
-112 -25 0
-113 -26 0
-114 -27 0
-130 -25 0
-131 -26 0
-132 -27 0
-142 -25 0
-143 -26 0
-144 -27 0
-148 -25 0
-149 -26 0
-150 -27 0
-52 -28 0
-53 -29 0
-54 -30 0
-58 -28 0
-59 -29 0
-60 -30 0
-61 -28 0
-62 -29 0
-63 -30 0
-70 -28 0
-71 -29 0
-72 -30 0
-109 -28 0
-110 -29 0
-111 -30 0
-127 -28 0
-128 -29 0
-129 -30 0
-133 -28 0
-134 -29 0
-135 -30 0
-64 -31 0
-65 -32 0
-66 -33 0
-91 -31 0
-92 -32 0
-93 -33 0
-97 -31 0
-98 -32 0
-99 -33 0
-124 -31 0
-125 -32 0
-126 -33 0
-136 -31 0
-137 -32 0
-138 -33 0
-139 -31 0
-140 -32 0
-141 -33 0
-148 -31 0
-149 -32 0
-150 -33 0
-94 -34 0
-95 -35 0
-96 -36 0
-97 -34 0
-98 -35 0
-99 -36 0
-55 -37 0
-56 -38 0
-57 -39 0
-70 -37 0
-71 -38 0
-72 -39 0
-103 -37 0
-104 -38 0
-105 -39 0
-127 -37 0
-128 -38 0
-129 -39 0
-139 -37 0
-140 -38 0
-141 -39 0
-58 -40 0
-59 -41 0
-60 -42 0
-82 -40 0
-83 -41 0
-84 -42 0
-112 -40 0
-113 -41 0
-114 -42 0
-61 -43 0
-62 -44 0
-63 -45 0
-67 -43 0
-68 -44 0
-69 -45 0
-91 -43 0
-92 -44 0
-93 -45 0
-109 -43 0
-110 -44 0
-111 -45 0
-121 -43 0
-122 -44 0
-123 -45 0
-124 -43 0
-125 -44 0
-126 -45 0
-142 -43 0
-143 -44 0
-144 -45 0
-91 -46 0
-92 -47 0
-93 -48 0
-124 -46 0
-125 -47 0
-126 -48 0
-145 -46 0
-146 -47 0
-147 -48 0
-61 -49 0
-62 -50 0
-63 -51 0
-112 -49 0
-113 -50 0
-114 -51 0
-136 -49 0
-137 -50 0
-138 -51 0
-112 -52 0
-113 -53 0
-114 -54 0
-124 -52 0
-125 -53 0
-126 -54 0
-118 -55 0
-119 -56 0
-120 -57 0
-106 -58 0
-107 -59 0
-108 -60 0
-121 -58 0
-122 -59 0
-123 -60 0
-127 -58 0
-128 -59 0
-129 -60 0
-142 -58 0
-143 -59 0
-144 -60 0
-112 -61 0
-113 -62 0
-114 -63 0
-136 -61 0
-137 -62 0
-138 -63 0
-145 -61 0
-146 -62 0
-147 -63 0
-106 -64 0
-107 -65 0
-108 -66 0
-124 -67 0
-125 -68 0
-126 -69 0
-103 -70 0
-104 -71 0
-105 -72 0
-118 -70 0
-119 -71 0
-120 -72 0
-127 -70 0
-128 -71 0
-129 -72 0
-142 -70 0
-143 -71 0
-144 -72 0
-121 -76 0
-122 -77 0
-123 -78 0
-142 -76 0
-143 -77 0
-144 -78 0
-145 -76 0
-146 -77 0
-147 -78 0
-145 -79 0
-146 -80 0
-147 -81 0
-112 -85 0
-113 -86 0
-114 -87 0
-118 -85 0
-119 -86 0
-120 -87 0
-127 -85 0
-128 -86 0
-129 -87 0
-142 -85 0
-143 -86 0
-144 -87 0
-109 -88 0
-110 -89 0
-111 -90 0
-121 -88 0
-122 -89 0
-123 -90 0
-124 -88 0
-125 -89 0
-126 -90 0
-106 -91 0
-107 -92 0
-108 -93 0
-115 -91 0
-116 -92 0
-117 -93 0
-139 -91 0
-140 -92 0
-141 -93 0
-145 -91 0
-146 -92 0
-147 -93 0
-106 -94 0
-107 -95 0
-108 -96 0
-112 -94 0
-113 -95 0
-114 -96 0
-118 -94 0
-119 -95 0
-120 -96 0
-127 -94 0
-128 -95 0
-129 -96 0
-148 -97 0
-149 -98 0
-150 -99 0
-139 -100 0
-140 -101 0
-141 -102 0
-148 -100 0
-149 -101 0
-150 -102 0
